DATASET = "thpack2";
INSTANCE = "094";

WIDTH = 233;
HEIGHT = 220;
LENGTH = 587;

NO_OF_SHAPES = 5;
size = [|
  75,73,69 |
  66,56,40 |
  64,51,41 |
  90,52,28 |
  73,33,28 |
|];

verticality = [|
  1,1,1 |
  1,1,1 |
  1,1,1 |
  0,1,1 |
  0,1,1 |
|];

box_count = [
  36,
  39,
  38,
  30,
  25,
];
